Version identifier: 22.1.1.0 | 2022-11-28 | 9160aff4d
CPXPARAM_ClockType                               1
CPXPARAM_Read_DataCheck                          1
CPXPARAM_Threads                                 1
CPXPARAM_TimeLimit                               7200
CPXPARAM_MIP_Tolerances_AbsMIPGap                0
CPXPARAM_MIP_Tolerances_MIPGap                   0
CPXPARAM_MIP_Tolerances_Integrality              0
Tried aggregator 6 times.
MIP Presolve eliminated 34046 rows and 6658 columns.
MIP Presolve modified 5171 coefficients.
Aggregator did 6201 substitutions.
Reduced MIP has 586124 rows, 221751 columns, and 1813508 nonzeros.
Reduced MIP has 221751 binaries, 0 generals, 0 SOSs, and 0 indicators.
Presolve time = 7.25 sec. (3880.48 ticks)
Probing fixed 1449 vars, tightened 0 bounds.
Probing time = 11.59 sec. (2769.34 ticks)
Tried aggregator 4 times.
Detecting symmetries...
MIP Presolve eliminated 18816 rows and 7056 columns.
MIP Presolve modified 346 coefficients.
Aggregator did 696 substitutions.
Reduced MIP has 566612 rows, 213999 columns, and 1761553 nonzeros.
Reduced MIP has 213999 binaries, 0 generals, 0 SOSs, and 0 indicators.
Presolve time = 11.35 sec. (5983.68 ticks)
Probing time = 0.23 sec. (56.21 ticks)
Clique table members: 766275.
MIP emphasis: balance optimality and feasibility.
MIP search method: dynamic search.
Parallel mode: none, using 1 thread.
Root relaxation solution time = 7820.00 sec. (1376968.73 ticks)

        Nodes                                         Cuts/
   Node  Left     Objective  IInf  Best Integer    Best Bound    ItCnt     Gap

      0     0   1.00000e+37     0                 193365.0000   442818         

Root node processing (before b&c):
  Real time             = 7856.65 sec. (1393122.67 ticks)
Sequential b&c:
  Real time             =    0.00 sec. (0.00 ticks)
                          ------------
Total (root+branch&cut) = 7856.65 sec. (1393122.67 ticks)
Solution is infeasible.

---------------------
@@@ MIP_time_limit_infeasible
Traceback (most recent call last):
  File "/scratch/scherif/DiverseSAT-journal_sup/DiverseSAT_Supplementary_Experiments/experiment-1/cplex/jobs/../solvers/CPLEX-IW-SE.py", line 105, in <module>
    print(f">>> Benchmark {os.path.basename(cnf_file)} k {k} OPT {int(prob.solution.get_objective_value())}"
  File "/users/scherif/.local/lib/python3.9/site-packages/cplex/_internal/_subinterfaces.py", line 7211, in get_objective_value
    return CPX_PROC.getobjval(self._env._e, self._cplex._lp)
  File "/users/scherif/.local/lib/python3.9/site-packages/cplex/_internal/_procedural.py", line 2055, in getobjval
    check_status(env, status)
  File "/users/scherif/.local/lib/python3.9/site-packages/cplex/_internal/_procedural.py", line 249, in __call__
    raise CplexSolverError(error_string, env, status)
cplex.exceptions.errors.CplexSolverError: CPLEX Error  1217: No solution exists.
